seed= 2052018 ;
N= 10 ;
M= 2 ;
F= 2 ;
K= 3 ;
T= 72 ;

p=[ 20 20 20 20 20 10 10 10 10 10 ];
r=[ 11 7 3 11 11 5 9 11 11 10 ];
d=[ 11 2 1 17 28 6 19 34 31 11 ];
s=[ 1 1 1 1 1 1 1 1 1 1 ];
w=[ 3 2 5 1 3 3 3 4 1 1 ];
f=[ 1 1 1 1 1 2 2 2 2 2 ];

e1=[ 10 10 10 10 10 10 10 10 10 10 10 10 10 10 10 10 10 10 10 10 10 10 10 10 10 10 10 10 10 10 10 10 10 10 10 10 8 8 8 8 8 8 8 8 8 8 8 8 8 8 8 8 8 8 8 8 8 8 8 8 8 8 8 8 8 8 8 8 8 8 8 8 ];
e2=[ 10 10 10 10 10 10 10 10 10 10 10 10 10 10 10 10 10 10 10 10 10 10 10 10 9 9 9 9 9 9 9 9 9 9 9 9 8 8 8 8 8 8 8 8 8 8 8 8 8 8 8 8 8 8 8 8 8 8 8 8 9 9 9 9 9 9 9 9 9 9 9 9 ];